c Reduced graph for p17 generated by Cyril Grelier
p edge 37 161
e 1 3
e 1 10
e 1 11
e 1 12
e 1 14
e 1 15
e 1 23
e 1 25
e 1 36
e 2 8
e 2 17
e 2 19
e 2 25
e 2 29
e 2 32
e 2 33
e 2 37
e 3 6
e 3 10
e 3 11
e 3 17
e 3 18
e 3 22
e 3 25
e 3 36
e 4 6
e 4 10
e 4 16
e 4 24
e 4 29
e 4 30
e 4 31
e 4 34
e 5 15
e 5 18
e 5 19
e 5 20
e 5 21
e 5 33
e 5 35
e 5 36
e 6 16
e 6 17
e 6 18
e 6 22
e 6 24
e 6 29
e 7 8
e 7 9
e 7 21
e 7 23
e 7 24
e 7 26
e 7 28
e 7 31
e 7 32
e 8 21
e 8 23
e 8 25
e 8 26
e 8 29
e 8 31
e 8 33
e 9 12
e 9 13
e 9 20
e 9 24
e 9 28
e 9 30
e 9 32
e 10 11
e 10 25
e 10 30
e 10 31
e 10 34
e 10 36
e 11 13
e 11 16
e 11 25
e 11 26
e 11 27
e 11 35
e 11 36
e 11 37
e 12 13
e 12 14
e 12 15
e 12 20
e 12 23
e 12 30
e 13 16
e 13 20
e 13 26
e 13 27
e 13 30
e 13 35
e 13 37
e 14 15
e 14 22
e 14 23
e 14 27
e 14 28
e 14 34
e 15 18
e 15 23
e 15 33
e 15 35
e 16 24
e 16 26
e 16 27
e 16 29
e 16 35
e 16 37
e 17 18
e 17 19
e 17 22
e 17 32
e 17 37
e 18 22
e 18 33
e 18 35
e 19 20
e 19 21
e 19 32
e 19 36
e 19 37
e 20 21
e 20 30
e 20 36
e 21 23
e 21 26
e 21 31
e 21 36
e 22 27
e 22 28
e 22 34
e 23 26
e 23 31
e 24 28
e 24 29
e 24 32
e 25 29
e 25 33
e 25 36
e 26 27
e 26 31
e 26 35
e 26 37
e 27 28
e 27 34
e 27 35
e 27 37
e 28 32
e 28 34
e 29 33
e 30 31
e 30 34
e 31 34
e 32 37
e 33 35
e 35 37
